NAME : S-U-4-6.2370.tour
COMMENT : Length = 2370
COMMENT : Found by LKH [Keld Helsgaun] Thu May 17 23:18:22 2018
TYPE : TOUR
DIMENSION : 31
TOUR_SECTION
1
26
24
27
15
10
7
4
28
23
17
22
2
6
14
5
21
30
8
9
13
16
20
3
11
12
31
18
19
25
29
-1
EOF
